(set-logic HORN)
(set-info :source |
    Benchmark: C_VC
    Output by Princess (http://www.philipp.ruemmer.org/princess.shtml)
|)
(set-info :status sat)
(declare-fun inv_main26 (Int Int Int Int Int Int Int Int) Bool)
(declare-fun inv_main27 (Int Int Int Int Int Int Int Int) Bool)
(declare-fun inv_main4 (Int Int Int Int Int Int Int Int) Bool)
(declare-fun inv_main44 (Int Int Int Int Int Int Int Int Int Int Int Int) Bool)
(declare-fun inv_main45 (Int Int Int Int Int Int Int Int Int Int Int Int) Bool)
(declare-fun inv_main46 (Int Int Int Int Int Int Int Int Int Int Int Int) Bool)
(declare-fun inv_main47 (Int Int Int Int Int Int Int Int Int Int Int Int) Bool)
(assert (forall ((var0 Int) (var1 Int) (var2 Int) (var3 Int) (var4 Int) (var5 Int) (var6 Int) (var7 Int)) (inv_main4 var7 var6 var5 var4 var3 var2 var1 var0)))
(assert (forall ((var0 Int) (var1 Int) (var2 Int) (var3 Int) (var4 Int) (var5 Int) (var6 Int) (var7 Int) (var8 Int) (var9 Int) (var10 Int) (var11 Int)) (or (not (inv_main45 var11 var10 var9 var8 var7 var6 var5 var4 var3 var2 var1 var0)) (inv_main46 var11 var10 var9 var8 var7 var6 var5 var4 var3 var2 var1 var0))))
(assert (forall ((var0 Int) (var1 Int) (var2 Int) (var3 Int) (var4 Int) (var5 Int) (var6 Int) (var7 Int) (var8 Int) (var9 Int) (var10 Int) (var11 Int) (var12 Int) (var13 Int) (var14 Int) (var15 Int) (var16 Int) (var17 Int) (var18 Int) (var19 Int) (var20 Int) (var21 Int) (var22 Int)) (or (not (and (inv_main47 var22 var21 var20 var19 var18 var17 var16 var15 var14 var13 var12 var11) (and (and (and (and (and (and (and (and (and (and (and (and (= var10 var22) (= var9 var21)) (= var8 var19)) (= var7 (+ var14 (* (- 1) var11)))) (= var6 var17)) (= var5 (+ var18 (* (- 1) (* var17 (+ var13 var12)))))) (= var4 var16)) (= var3 var15)) (= var2 (+ var14 (* (- 1) var11)))) (= var1 (+ var13 var12))) (= var0 var18)) (not (<= 0 (+ (+ var14 (* (- 1) var11)) (* (- 1) var19))))) (not (<= 0 (+ var14 (* (- 2) var11))))))) (inv_main26 var10 var9 var8 var7 var6 var5 var3 (+ var4 (* (- 1) (* var3 var1)))))))
(assert (forall ((var0 Int) (var1 Int) (var2 Int) (var3 Int) (var4 Int) (var5 Int) (var6 Int) (var7 Int) (var8 Int) (var9 Int) (var10 Int) (var11 Int) (var12 Int) (var13 Int) (var14 Int) (var15 Int) (var16 Int) (var17 Int) (var18 Int) (var19 Int) (var20 Int) (var21 Int) (var22 Int) (var23 Int) (var24 Int) (var25 Int) (var26 Int) (var27 Int)) (or (not (and (inv_main4 var27 var26 var25 var24 var23 var22 var21 var20) (and (and (not (= var19 0)) (and (and (and (and (and (and (and (and (= var18 var17) (= var16 var15)) (= var14 var13)) (= var12 var11)) (= var10 var9)) (= var8 var7)) (= var6 var5)) (= var4 var3)) (or (and (<= 0 (+ var15 (- 1))) (= var19 1)) (and (not (<= 0 (+ var15 (- 1)))) (= var19 0))))) (and (not (= var2 0)) (and (and (and (and (and (and (and (and (= var17 var1) (= var15 var0)) (= var13 var25)) (= var11 var24)) (= var9 var23)) (= var7 var22)) (= var5 var21)) (= var3 var20)) (or (and (<= 0 (+ var1 (- 1))) (= var2 1)) (and (not (<= 0 (+ var1 (- 1)))) (= var2 0)))))))) (inv_main26 var18 var16 var18 var16 1 0 0 1))))
(assert (forall ((var0 Int) (var1 Int) (var2 Int) (var3 Int) (var4 Int) (var5 Int) (var6 Int) (var7 Int) (var8 Int) (var9 Int) (var10 Int) (var11 Int) (var12 Int) (var13 Int) (var14 Int) (var15 Int) (var16 Int) (var17 Int) (var18 Int)) (or (not (and (inv_main26 var18 var17 var16 var15 var14 var13 var12 var11) (and (and (and (and (and (and (and (and (and (and (and (and (= var10 var18) (= var9 var17)) (= var8 var15)) (= var7 var16)) (= var6 var13)) (= var5 (+ var14 (* (- 1) (* var13 0))))) (= var4 var12)) (= var3 var11)) (= var2 var16)) (= var1 0)) (= var0 var14)) (not (<= 0 (+ var16 (* (- 1) var15))))) (not (= var15 0))))) (inv_main26 var10 var9 var8 var7 var6 var5 var3 (+ var4 (* (- 1) (* var3 var1)))))))
(assert (forall ((var0 Int) (var1 Int) (var2 Int) (var3 Int) (var4 Int) (var5 Int) (var6 Int) (var7 Int)) (or (not (and (inv_main26 var7 var6 var5 var4 var3 var2 var1 var0) (= var4 0))) (inv_main27 var7 var6 var5 var4 var3 var2 var1 var0))))
(assert (forall ((var0 Int) (var1 Int) (var2 Int) (var3 Int) (var4 Int) (var5 Int) (var6 Int) (var7 Int) (var8 Int) (var9 Int) (var10 Int) (var11 Int)) (or (not (and (inv_main47 var11 var10 var9 var8 var7 var6 var5 var4 var3 var2 var1 var0) (<= 0 (+ var3 (* (- 2) var0))))) (inv_main44 var11 var10 var9 var8 var7 var6 var5 var4 var3 var2 (* 2 var1) (* 2 var0)))))
(assert (forall ((var0 Int) (var1 Int) (var2 Int) (var3 Int) (var4 Int) (var5 Int) (var6 Int) (var7 Int) (var8 Int) (var9 Int) (var10 Int) (var11 Int)) (or (not (and (inv_main47 var11 var10 var9 var8 var7 var6 var5 var4 var3 var2 var1 var0) (and (<= 0 (+ (+ var3 (* (- 1) var0)) (* (- 1) var8))) (not (<= 0 (+ var3 (* (- 2) var0))))))) (inv_main44 var11 var10 var9 var8 var7 var6 var5 var4 (+ var3 (* (- 1) var0)) (+ var2 var1) 1 var8))))
(assert (forall ((var0 Int) (var1 Int) (var2 Int) (var3 Int) (var4 Int) (var5 Int) (var6 Int) (var7 Int)) (or (not (and (inv_main26 var7 var6 var5 var4 var3 var2 var1 var0) (and (<= 0 (+ var5 (* (- 1) var4))) (not (= var4 0))))) (inv_main44 var7 var6 var5 var4 var3 var2 var1 var0 var5 0 1 var4))))
(assert (forall ((var0 Int) (var1 Int) (var2 Int) (var3 Int) (var4 Int) (var5 Int) (var6 Int) (var7 Int) (var8 Int) (var9 Int) (var10 Int) (var11 Int)) (or (not (inv_main44 var11 var10 var9 var8 var7 var6 var5 var4 var3 var2 var1 var0)) (inv_main45 var11 var10 var9 var8 var7 var6 var5 var4 var3 var2 var1 var0))))
(assert (forall ((var0 Int) (var1 Int) (var2 Int) (var3 Int) (var4 Int) (var5 Int) (var6 Int) (var7 Int) (var8 Int) (var9 Int) (var10 Int) (var11 Int)) (or (not (inv_main46 var11 var10 var9 var8 var7 var6 var5 var4 var3 var2 var1 var0)) (inv_main47 var11 var10 var9 var8 var7 var6 var5 var4 var3 var2 var1 var0))))
(assert (forall ((var0 Int) (var1 Int) (var2 Int) (var3 Int) (var4 Int) (var5 Int) (var6 Int) (var7 Int) (var8 Int) (var9 Int) (var10 Int) (var11 Int)) (not (and (inv_main44 var11 var10 var9 var8 var7 var6 var5 var4 var3 var2 var1 var0) (not (= var9 (+ (* var10 var5) (* var11 var7))))))))
(assert (forall ((var0 Int) (var1 Int) (var2 Int) (var3 Int) (var4 Int) (var5 Int) (var6 Int) (var7 Int) (var8 Int) (var9 Int) (var10 Int) (var11 Int)) (not (and (inv_main45 var11 var10 var9 var8 var7 var6 var5 var4 var3 var2 var1 var0) (not (= var8 (+ (* var11 var6) (* var10 var4))))))))
(assert (forall ((var0 Int) (var1 Int) (var2 Int) (var3 Int) (var4 Int) (var5 Int) (var6 Int) (var7 Int) (var8 Int) (var9 Int) (var10 Int) (var11 Int)) (not (and (inv_main46 var11 var10 var9 var8 var7 var6 var5 var4 var3 var2 var1 var0) (not (= var9 (+ (* var2 var8) var3)))))))
(assert (forall ((var0 Int) (var1 Int) (var2 Int) (var3 Int) (var4 Int) (var5 Int) (var6 Int) (var7 Int) (var8 Int) (var9 Int) (var10 Int) (var11 Int)) (not (and (inv_main47 var11 var10 var9 var8 var7 var6 var5 var4 var3 var2 var1 var0) (not (= var0 (* var8 var1)))))))
(assert (forall ((var0 Int) (var1 Int) (var2 Int) (var3 Int) (var4 Int) (var5 Int) (var6 Int) (var7 Int)) (not (and (inv_main27 var7 var6 var5 var4 var3 var2 var1 var0) (not (= (+ (+ (+ (* var3 var7) (* (- 1) (* var2 var7))) (* var1 var6)) (* (- 1) (* var0 var6))) var5))))))
(check-sat)
